
<<< setup


<<< generate

Version identifier: 22.1.1.0 | 2022-11-28 | 9160aff4d
CPXPARAM_TimeLimit                               1800
Tried aggregator 1 time.
MIP Presolve eliminated 122760 rows and 244036 columns.
Reduced MIP has 487084 rows, 244530 columns, and 1461252 nonzeros.
Reduced MIP has 243542 binaries, 988 generals, 0 SOSs, and 0 indicators.
Presolve time = 0.33 sec. (626.39 ticks)
Probing time = 0.11 sec. (75.90 ticks)
Tried aggregator 1 time.
Detecting symmetries...
Reduced MIP has 487084 rows, 244530 columns, and 1461252 nonzeros.
Reduced MIP has 243542 binaries, 988 generals, 0 SOSs, and 0 indicators.
Presolve time = 0.41 sec. (620.93 ticks)
Probing time = 0.11 sec. (75.90 ticks)
MIP emphasis: balance optimality and feasibility.
MIP search method: dynamic search.
Parallel mode: deterministic, using up to 8 threads.
Root relaxation solution time = 0.48 sec. (642.28 ticks)

        Nodes                                         Cuts/
   Node  Left     Objective  IInf  Best Integer    Best Bound    ItCnt     Gap

      0     0    80000.0000 243542                  80000.0000    30443         
      0     0    80000.0000 176520               MIRcuts: 10000    47375         
      0     0    80000.0000 83531                 Cuts: 10000   136163         
      0     0    80000.0000 94487                  Cuts: 5959   203994         
      0     0    80000.0000 34000                   Cuts: 163   205597         
      0     0    80000.0000 34078                  Cuts: 1009   209468         
Detecting symmetries...

Implied bound cuts applied:  46
Mixed integer rounding cuts applied:  98
Zero-half cuts applied:  131

Root node processing (before b&c):
  Real time             = 1800.22 sec. (2372025.38 ticks)
Parallel b&c, 8 threads:
  Real time             =    0.00 sec. (0.00 ticks)
  Sync time (average)   =    0.00 sec.
  Wait time (average)   =    0.00 sec.
                          ------------
Total (root+branch&cut) = 1800.22 sec. (2372025.38 ticks)

<<< solve


<<< no solution

